6 6 1.15
6 1 3 1 1 1 3 1 2 6 1 4 7 2 6 3 4 3 1 5 6 
6 1 2 8 1 3 5 1 5 10 1 6 10 1 1 10 1 4 4 
6 2 3 5 6 5 1 4 4 1 6 8 1 1 9 2 2 1 6 1 1 5 7 
6 1 2 5 1 1 5 1 3 5 2 4 3 1 3 1 5 8 1 6 9 
6 1 3 9 1 2 3 1 5 5 2 6 4 2 4 1 1 3 1 4 1 
6 2 2 3 4 3 1 4 3 1 6 9 1 1 10 1 5 4 1 3 1 
1 3 12 30 
1 5 4 22 
1 16 3 21 
1 6 7 17 
1 17 8 32 
1 17 12 31 
